SAT
20 83 -23 -61 -48 -8 5 92 -17 -53 72 50 -31 14 44 -75 12 49 19 -22 79 -69 62 63 67 -73 -37 -86 -34 33 -68 95 29 -80 16 90 82 -100 -41 -43 -24 89 -70 -98 76 -55 6 36 -78 27 65 3 -77 18 93 -71 10 47 -25 39 56 32 -57 38 2 -42 -11 -97 -60 -4 84 -51 59 9 85 -64 -96 7 -87 1 -58 -21 99 15 -46 -91 26 -88 45 94 81 54 -40 -66 -13 74 52 28 -35 30 0
